%%% static parameters %%%
timespan = 1;
Fact = [4];
Distr1 = [15];
Distr2 = [30];
Clients_N = [300];
Demand_W = [15];
Lt0 = [4];
Lt1 = [4];
SS_ = [0.85];
DS_D = [8];
K = [200];
MA = [500];
%%% dynamic parameters %%%
lost_ratio_sales_ret_th = 0.20805086125687233;
lost_ratio_sales_ret_w = 10;
lost_ratio_sales_dis_th = 0.5076912351847653;
lost_ratio_sales_dis_w = 1;
lost_ratio_sales_fac_th = 0.15919549926226184;
lost_ratio_sales_fac_w = 11;
stock_customer_MA_mean_relative_th = 0.7202020806425863;
stock_customer_MA_mean_relative_w = 50;
stock_distributor_MA_mean_relative_th = 0.14852139205124348;
stock_distributor_MA_mean_relative_w = 53;
stock_retailer_MA_mean_relative_th = 0.3727108996720264;
stock_retailer_MA_mean_relative_w = 9;
stock_factory_MA_mean_relative_th = 0.8457442791660971;
stock_factory_MA_mean_relative_w = 97;
